
Gurobi 7.0.1 (mac64, Python) logging started Tue Nov 29 22:41:07 2016

Optimize a model with 2 rows, 2 columns and 4 nonzeros
Coefficient statistics:
  Matrix range     [4e+01, 4e+02]
  Objective range  [2e+03, 3e+03]
  Bounds range     [1e+02, 1e+02]
  RHS range        [1e+04, 6e+04]
Presolve time: 0.01s
Presolved: 2 rows, 2 columns, 4 nonzeros

Iteration    Objective       Primal Inf.    Dual Inf.      Time
       0    2.4000000e+33   1.171875e+30   2.400000e+03      0s
       2    5.2000000e+05   0.000000e+00   0.000000e+00      0s

Solved in 2 iterations and 0.01 seconds
Optimal objective  5.200000000e+05

Gurobi 7.0.1 (mac64, Python) logging started Wed Nov 30 01:51:20 2016


Gurobi 7.0.1 (mac64, Python) logging started Wed Nov 30 01:51:28 2016

